c WARNING: for repeatability, setting FPU to use double precision
d VARIABLES            225576       
d CONSTRAINTS          983963       
c ============================[ Problem Statistics ]=============================
c |                                                                             |
c |  Number of variables:        225576                                         |
c |  Number of clauses:          983963                                         |
c |  Parse time:                   0.17 s                                       |
c |                                                                             |
c ============================[ Search Statistics ]==============================
c | Conflicts |          ORIGINAL         |          LEARNT          | Progress |
c |           |    Vars  Clauses Literals |    Limit  Clauses Lit/Cl |          |
c ===============================================================================
c |       100 |  186922   884333  2144089 |   324255       99     25 | 17.136 % |
c |       250 |  186922   884333  2144089 |   356680      249     54 | 17.136 % |
c |       475 |  186922   884223  2143825 |   392349      474     69 | 17.136 % |
c |       812 |  186922   884223  2143825 |   431583      811     65 | 17.136 % |
c |      1318 |  186922   884223  2143825 |   474742     1317     61 | 17.136 % |
c |      2077 |  186888   884055  2143421 |   522216     2074     74 | 17.151 % |
c |      3216 |  186888   884055  2143421 |   574438     3213     81 | 17.151 % |
c |      4924 |  186888   884055  2143421 |   631882     4921     84 | 17.151 % |
c |      7486 |  186888   884055  2143421 |   695070     7483     92 | 17.151 % |
c |     11330 |  186888   884055  2143421 |   764577    11327     95 | 17.151 % |
c |     17096 |  186888   884055  2143421 |   841035    17093    110 | 17.151 % |
c |     25745 |  186888   884055  2143421 |   925138    25742    126 | 17.151 % |
c |     38719 |  186888   884055  2143421 |  1017652    38716    145 | 17.151 % |
c |     58180 |  186888   884055  2143421 |  1119417    58177    130 | 17.151 % |
c |     87372 |  186888   884055  2143421 |  1231359    87369    144 | 17.151 % |
c |    131161 |  186877   884001  2143291 |  1354495   131157    160 | 17.156 % |
c |    196845 |  186877   884001  2143291 |  1489944   196841    156 | 17.156 % |
c |    295371 |  186876   883997  2143281 |  1638939   295366    159 | 17.156 % |
c |    443160 |  186876   883997  2143281 |  1802833   443155    163 | 17.156 % |
c |    664843 |  186876   883997  2143281 |  1983116   664838    154 | 17.156 % |
c |    997368 |  186876   883997  2143281 |  2181428   997363    149 | 17.156 % |
c |   1496156 |  186876   883997  2143281 |  2399571  1496151    143 | 17.156 % |
c ===============================================================================
c restarts              : 4094
c conflicts             : 2195644        (1224 /sec)
c decisions             : 5436012        (0.00 % random) (3029 /sec)
c propagations          : 5728855996     (3192538 /sec)
c conflict literals     : 325078332      (33.26 % deleted)
d RESTARTS             4094
d FAILURES             2195644      
d NODES                5436012      
d BACKTRACKS           5436012      
d PROPAGATIONS         5728855996   
d NOGOODSIZE           148.06 
d MEMORY               1654.00 
d TIME                 1794.45 

s UNKNOWN
